NAME JobShopModel
ROWS
 N  OBJ
 G  c0      
 E  c1      
 E  c2      
 E  c3      
 E  c4      
 E  c5      
 E  c6      
 E  c7      
 E  c8      
 E  c9      
 E  c10     
 E  c11     
 E  c12     
 L  c13     
 L  c14     
 L  c15     
 L  c16     
 L  c17     
 L  c18     
 L  c19     
 L  c20     
 L  c21     
 L  c22     
 L  c23     
 L  c24     
 L  c25     
 L  c26     
 L  c27     
 L  c28     
 L  c29     
 L  c30     
 L  c31     
 L  c32     
 L  c33     
 L  c34     
 L  c35     
 L  c36     
 G  c37     
 G  c38     
 G  c39     
 G  c40     
 G  c41     
 G  c42     
 G  c43     
 G  c44     
 G  c45     
 G  c46     
 G  c47     
 G  c48     
 G  c49     
 G  c50     
 G  c51     
 G  c52     
 G  c53     
 G  c54     
 G  c55     
 G  c56     
 G  c57     
 G  c58     
 G  c59     
 G  c60     
 G  c61     
 G  c62     
 G  c63     
 G  c64     
 G  c65     
 G  c66     
 G  c67     
 G  c68     
 G  c69     
 G  c70     
 G  c71     
 G  c72     
 G  c73     
 G  c74     
 G  c75     
 G  c76     
 G  c77     
 G  c78     
 G  c79     
 G  c80     
 G  c81     
 G  c82     
 G  c83     
 G  c84     
 G  c85     
 G  c86     
 G  c87     
 G  c88     
 G  c89     
 G  c90     
 G  c91     
 G  c92     
 G  c93     
 G  c94     
 G  c95     
 G  c96     
 G  c97     
 G  c98     
 G  c99     
 G  c100    
 G  c101    
 G  c102    
 G  c103    
 G  c104    
 G  c105    
 G  c106    
 G  c107    
 G  c108    
 G  c109    
 G  c110    
 G  c111    
 G  c112    
 G  c113    
 G  c114    
 G  c115    
 G  c116    
 G  c117    
 G  c118    
 G  c119    
 G  c120    
 G  c121    
 G  c122    
 G  c123    
 G  c124    
 G  c125    
 G  c126    
 G  c127    
 G  c128    
 G  c129    
 G  c130    
 G  c131    
 G  c132    
 G  c133    
 G  c134    
 G  c135    
 G  c136    
 G  c137    
 G  c138    
 G  c139    
 G  c140    
 G  c141    
 G  c142    
 G  c143    
 G  c144    
 G  c145    
 G  c146    
 G  c147    
 G  c148    
 G  c149    
 G  c150    
 G  c151    
 G  c152    
 G  c153    
 G  c154    
 G  c155    
 G  c156    
 G  c157    
 G  c158    
 G  c159    
 G  c160    
 G  c161    
 G  c162    
 G  c163    
 G  c164    
 G  c165    
 G  c166    
 G  c167    
 G  c168    
 G  c169    
 G  c170    
 G  c171    
 G  c172    
 G  c173    
 G  c174    
 G  c175    
 G  c176    
 G  c177    
 G  c178    
 G  c179    
 G  c180    
 G  c181    
 G  c182    
 G  c183    
 G  c184    
 G  c185    
 G  c186    
 G  c187    
 G  c188    
 G  c189    
 G  c190    
 G  c191    
 G  c192    
 G  c193    
 G  c194    
 G  c195    
 G  c196    
 G  c197    
 G  c198    
 G  c199    
 G  c200    
 G  c201    
 G  c202    
 G  c203    
 G  c204    
 G  c205    
 G  c206    
COLUMNS
    MARKER    'MARKER'                 'INTORG'
    y[0,0,3]  c0        -5
    y[0,0,3]  c1        1
    y[0,0,3]  c13       -10000000
    y[0,0,3]  c45       -10000000
    y[0,0,3]  c46       -10000000
    y[0,0,3]  c49       -10000000
    y[0,0,3]  c50       -10000000
    y[0,0,3]  c51       -10000000
    y[0,0,3]  c52       -10000000
    y[0,0,3]  c77       -10000000
    y[0,0,3]  c78       -10000000
    y[0,0,3]  c159      -1
    y[0,0,4]  c0        -2
    y[0,0,4]  c1        1
    y[0,0,4]  c14       -10000000
    y[0,0,4]  c47       -10000000
    y[0,0,4]  c48       -10000000
    y[0,0,4]  c53       -10000000
    y[0,0,4]  c54       -10000000
    y[0,0,4]  c55       -10000000
    y[0,0,4]  c56       -10000000
    y[0,0,4]  c57       -10000000
    y[0,0,4]  c58       -10000000
    y[0,0,4]  c79       -10000000
    y[0,0,4]  c80       -10000000
    y[0,0,4]  c161      -1
    y[0,1,0]  c2        1
    y[0,1,0]  c15       -10000000
    y[0,1,0]  c37       -4
    y[0,1,0]  c65       -10000000
    y[0,1,0]  c66       -10000000
    y[0,1,0]  c69       -10000000
    y[0,1,0]  c70       -10000000
    y[0,1,0]  c73       -10000000
    y[0,1,0]  c74       -10000000
    y[0,1,0]  c163      -2
    y[0,1,2]  c2        1
    y[0,1,2]  c16       -10000000
    y[0,1,2]  c37       -5
    y[0,1,2]  c59       -10000000
    y[0,1,2]  c60       -10000000
    y[0,1,2]  c61       -10000000
    y[0,1,2]  c62       -10000000
    y[0,1,2]  c63       -10000000
    y[0,1,2]  c64       -10000000
    y[0,1,2]  c67       -10000000
    y[0,1,2]  c68       -10000000
    y[0,1,2]  c71       -10000000
    y[0,1,2]  c72       -10000000
    y[0,1,2]  c75       -10000000
    y[0,1,2]  c76       -10000000
    y[0,1,2]  c165      -2
    y[0,2,3]  c3        1
    y[0,2,3]  c17       -10000000
    y[0,2,3]  c38       -3
    y[0,2,3]  c45       -10000000
    y[0,2,3]  c46       -10000000
    y[0,2,3]  c77       -10000000
    y[0,2,3]  c78       -10000000
    y[0,2,3]  c81       -10000000
    y[0,2,3]  c82       -10000000
    y[0,2,3]  c83       -10000000
    y[0,2,3]  c84       -10000000
    y[0,2,4]  c3        1
    y[0,2,4]  c18       -10000000
    y[0,2,4]  c38       -4
    y[0,2,4]  c47       -10000000
    y[0,2,4]  c48       -10000000
    y[0,2,4]  c79       -10000000
    y[0,2,4]  c80       -10000000
    y[0,2,4]  c85       -10000000
    y[0,2,4]  c86       -10000000
    y[0,2,4]  c87       -10000000
    y[0,2,4]  c88       -10000000
    y[0,2,4]  c89       -10000000
    y[0,2,4]  c90       -10000000
    y[1,0,2]  c0        -5
    y[1,0,2]  c4        1
    y[1,0,2]  c19       -10000000
    y[1,0,2]  c59       -10000000
    y[1,0,2]  c60       -10000000
    y[1,0,2]  c91       -10000000
    y[1,0,2]  c92       -10000000
    y[1,0,2]  c95       -10000000
    y[1,0,2]  c96       -10000000
    y[1,0,2]  c97       -10000000
    y[1,0,2]  c98       -10000000
    y[1,0,2]  c99       -10000000
    y[1,0,2]  c100      -10000000
    y[1,0,2]  c101      -10000000
    y[1,0,2]  c102      -10000000
    y[1,0,2]  c103      -10000000
    y[1,0,2]  c104      -10000000
    y[1,0,2]  c171      -3
    y[1,0,3]  c0        -5
    y[1,0,3]  c4        1
    y[1,0,3]  c20       -10000000
    y[1,0,3]  c49       -10000000
    y[1,0,3]  c50       -10000000
    y[1,0,3]  c81       -10000000
    y[1,0,3]  c82       -10000000
    y[1,0,3]  c93       -10000000
    y[1,0,3]  c94       -10000000
    y[1,0,3]  c105      -10000000
    y[1,0,3]  c106      -10000000
    y[1,0,3]  c173      -3
    y[1,1,2]  c5        1
    y[1,1,2]  c21       -10000000
    y[1,1,2]  c39       -2
    y[1,1,2]  c61       -10000000
    y[1,1,2]  c62       -10000000
    y[1,1,2]  c91       -10000000
    y[1,1,2]  c92       -10000000
    y[1,1,2]  c103      -10000000
    y[1,1,2]  c104      -10000000
    y[1,1,2]  c107      -10000000
    y[1,1,2]  c108      -10000000
    y[1,1,2]  c109      -10000000
    y[1,1,2]  c110      -10000000
    y[1,1,2]  c111      -10000000
    y[1,1,2]  c112      -10000000
    y[1,1,2]  c113      -10000000
    y[1,1,2]  c114      -10000000
    y[1,1,2]  c175      -1
    y[1,1,3]  c5        1
    y[1,1,3]  c22       -10000000
    y[1,1,3]  c39       -4
    y[1,1,3]  c51       -10000000
    y[1,1,3]  c52       -10000000
    y[1,1,3]  c83       -10000000
    y[1,1,3]  c84       -10000000
    y[1,1,3]  c93       -10000000
    y[1,1,3]  c94       -10000000
    y[1,1,3]  c105      -10000000
    y[1,1,3]  c106      -10000000
    y[1,1,3]  c177      -1
    y[1,2,1]  c6        1
    y[1,2,1]  c23       -10000000
    y[1,2,1]  c40       -2
    y[1,2,1]  c115      -10000000
    y[1,2,1]  c116      -10000000
    y[1,2,1]  c119      -10000000
    y[1,2,1]  c120      -10000000
    y[1,2,1]  c121      -10000000
    y[1,2,1]  c122      -10000000
    y[1,2,4]  c6        1
    y[1,2,4]  c24       -10000000
    y[1,2,4]  c40       -2
    y[1,2,4]  c53       -10000000
    y[1,2,4]  c54       -10000000
    y[1,2,4]  c85       -10000000
    y[1,2,4]  c86       -10000000
    y[1,2,4]  c117      -10000000
    y[1,2,4]  c118      -10000000
    y[1,2,4]  c123      -10000000
    y[1,2,4]  c124      -10000000
    y[2,0,1]  c0        -2
    y[2,0,1]  c7        1
    y[2,0,1]  c25       -10000000
    y[2,0,1]  c115      -10000000
    y[2,0,1]  c116      -10000000
    y[2,0,1]  c125      -10000000
    y[2,0,1]  c126      -10000000
    y[2,0,1]  c127      -10000000
    y[2,0,1]  c128      -10000000
    y[2,0,1]  c131      -10000000
    y[2,0,1]  c132      -10000000
    y[2,0,1]  c183      -2
    y[2,0,4]  c0        -5
    y[2,0,4]  c7        1
    y[2,0,4]  c26       -10000000
    y[2,0,4]  c55       -10000000
    y[2,0,4]  c56       -10000000
    y[2,0,4]  c87       -10000000
    y[2,0,4]  c88       -10000000
    y[2,0,4]  c117      -10000000
    y[2,0,4]  c118      -10000000
    y[2,0,4]  c129      -10000000
    y[2,0,4]  c130      -10000000
    y[2,0,4]  c185      -2
    y[2,1,1]  c8        1
    y[2,1,1]  c27       -10000000
    y[2,1,1]  c41       -4
    y[2,1,1]  c119      -10000000
    y[2,1,1]  c120      -10000000
    y[2,1,1]  c125      -10000000
    y[2,1,1]  c126      -10000000
    y[2,1,1]  c131      -10000000
    y[2,1,1]  c132      -10000000
    y[2,1,1]  c135      -10000000
    y[2,1,1]  c136      -10000000
    y[2,1,1]  c187      -1
    y[2,1,2]  c8        1
    y[2,1,2]  c28       -10000000
    y[2,1,2]  c41       -5
    y[2,1,2]  c63       -10000000
    y[2,1,2]  c64       -10000000
    y[2,1,2]  c95       -10000000
    y[2,1,2]  c96       -10000000
    y[2,1,2]  c107      -10000000
    y[2,1,2]  c108      -10000000
    y[2,1,2]  c133      -10000000
    y[2,1,2]  c134      -10000000
    y[2,1,2]  c137      -10000000
    y[2,1,2]  c138      -10000000
    y[2,1,2]  c139      -10000000
    y[2,1,2]  c140      -10000000
    y[2,1,2]  c141      -10000000
    y[2,1,2]  c142      -10000000
    y[2,1,2]  c189      -1
    y[2,2,0]  c9        1
    y[2,2,0]  c29       -10000000
    y[2,2,0]  c42       -3
    y[2,2,0]  c65       -10000000
    y[2,2,0]  c66       -10000000
    y[2,2,0]  c143      -10000000
    y[2,2,0]  c144      -10000000
    y[2,2,0]  c147      -10000000
    y[2,2,0]  c148      -10000000
    y[2,2,2]  c9        1
    y[2,2,2]  c30       -10000000
    y[2,2,2]  c42       -4
    y[2,2,2]  c67       -10000000
    y[2,2,2]  c68       -10000000
    y[2,2,2]  c97       -10000000
    y[2,2,2]  c98       -10000000
    y[2,2,2]  c109      -10000000
    y[2,2,2]  c110      -10000000
    y[2,2,2]  c133      -10000000
    y[2,2,2]  c134      -10000000
    y[2,2,2]  c141      -10000000
    y[2,2,2]  c142      -10000000
    y[2,2,2]  c145      -10000000
    y[2,2,2]  c146      -10000000
    y[2,2,2]  c149      -10000000
    y[2,2,2]  c150      -10000000
    y[3,0,1]  c0        -3
    y[3,0,1]  c10       1
    y[3,0,1]  c31       -10000000
    y[3,0,1]  c121      -10000000
    y[3,0,1]  c122      -10000000
    y[3,0,1]  c127      -10000000
    y[3,0,1]  c128      -10000000
    y[3,0,1]  c135      -10000000
    y[3,0,1]  c136      -10000000
    y[3,0,1]  c195      -2
    y[3,0,4]  c0        -2
    y[3,0,4]  c10       1
    y[3,0,4]  c32       -10000000
    y[3,0,4]  c57       -10000000
    y[3,0,4]  c58       -10000000
    y[3,0,4]  c89       -10000000
    y[3,0,4]  c90       -10000000
    y[3,0,4]  c123      -10000000
    y[3,0,4]  c124      -10000000
    y[3,0,4]  c129      -10000000
    y[3,0,4]  c130      -10000000
    y[3,0,4]  c197      -2
    y[3,1,0]  c11       1
    y[3,1,0]  c33       -10000000
    y[3,1,0]  c43       -3
    y[3,1,0]  c69       -10000000
    y[3,1,0]  c70       -10000000
    y[3,1,0]  c143      -10000000
    y[3,1,0]  c144      -10000000
    y[3,1,0]  c151      -10000000
    y[3,1,0]  c152      -10000000
    y[3,1,0]  c155      -10000000
    y[3,1,0]  c156      -10000000
    y[3,1,0]  c199      -3
    y[3,1,2]  c11       1
    y[3,1,2]  c34       -10000000
    y[3,1,2]  c43       -3
    y[3,1,2]  c71       -10000000
    y[3,1,2]  c72       -10000000
    y[3,1,2]  c99       -10000000
    y[3,1,2]  c100      -10000000
    y[3,1,2]  c111      -10000000
    y[3,1,2]  c112      -10000000
    y[3,1,2]  c137      -10000000
    y[3,1,2]  c138      -10000000
    y[3,1,2]  c145      -10000000
    y[3,1,2]  c146      -10000000
    y[3,1,2]  c153      -10000000
    y[3,1,2]  c154      -10000000
    y[3,1,2]  c157      -10000000
    y[3,1,2]  c158      -10000000
    y[3,1,2]  c201      -3
    y[3,2,0]  c12       1
    y[3,2,0]  c35       -10000000
    y[3,2,0]  c44       -3
    y[3,2,0]  c73       -10000000
    y[3,2,0]  c74       -10000000
    y[3,2,0]  c147      -10000000
    y[3,2,0]  c148      -10000000
    y[3,2,0]  c151      -10000000
    y[3,2,0]  c152      -10000000
    y[3,2,0]  c155      -10000000
    y[3,2,0]  c156      -10000000
    y[3,2,0]  c203      -2
    y[3,2,2]  c12       1
    y[3,2,2]  c36       -10000000
    y[3,2,2]  c44       -5
    y[3,2,2]  c75       -10000000
    y[3,2,2]  c76       -10000000
    y[3,2,2]  c101      -10000000
    y[3,2,2]  c102      -10000000
    y[3,2,2]  c113      -10000000
    y[3,2,2]  c114      -10000000
    y[3,2,2]  c139      -10000000
    y[3,2,2]  c140      -10000000
    y[3,2,2]  c149      -10000000
    y[3,2,2]  c150      -10000000
    y[3,2,2]  c153      -10000000
    y[3,2,2]  c154      -10000000
    y[3,2,2]  c157      -10000000
    y[3,2,2]  c158      -10000000
    y[3,2,2]  c205      -2
    x[0,0,0,0]  OBJ       0
    x[0,0,0,1]  OBJ       0
    x[0,0,0,2]  c45       10000000
    x[0,0,0,2]  c46       -10000000
    x[0,0,0,2]  c47       10000000
    x[0,0,0,2]  c48       -10000000
    x[0,0,1,0]  c49       10000000
    x[0,0,1,0]  c50       -10000000
    x[0,0,1,1]  c51       10000000
    x[0,0,1,1]  c52       -10000000
    x[0,0,1,2]  c53       10000000
    x[0,0,1,2]  c54       -10000000
    x[0,0,2,0]  c55       10000000
    x[0,0,2,0]  c56       -10000000
    x[0,0,2,1]  OBJ       0
    x[0,0,2,2]  OBJ       0
    x[0,0,3,0]  c57       10000000
    x[0,0,3,0]  c58       -10000000
    x[0,0,3,1]  OBJ       0
    x[0,0,3,2]  OBJ       0
    x[0,1,0,0]  OBJ       0
    x[0,1,0,1]  OBJ       0
    x[0,1,0,2]  OBJ       0
    x[0,1,1,0]  c59       10000000
    x[0,1,1,0]  c60       -10000000
    x[0,1,1,1]  c61       10000000
    x[0,1,1,1]  c62       -10000000
    x[0,1,1,2]  OBJ       0
    x[0,1,2,0]  OBJ       0
    x[0,1,2,1]  c63       10000000
    x[0,1,2,1]  c64       -10000000
    x[0,1,2,2]  c65       10000000
    x[0,1,2,2]  c66       -10000000
    x[0,1,2,2]  c67       10000000
    x[0,1,2,2]  c68       -10000000
    x[0,1,3,0]  OBJ       0
    x[0,1,3,1]  c69       10000000
    x[0,1,3,1]  c70       -10000000
    x[0,1,3,1]  c71       10000000
    x[0,1,3,1]  c72       -10000000
    x[0,1,3,2]  c73       10000000
    x[0,1,3,2]  c74       -10000000
    x[0,1,3,2]  c75       10000000
    x[0,1,3,2]  c76       -10000000
    x[0,2,0,0]  c77       10000000
    x[0,2,0,0]  c78       -10000000
    x[0,2,0,0]  c79       10000000
    x[0,2,0,0]  c80       -10000000
    x[0,2,0,1]  OBJ       0
    x[0,2,0,2]  OBJ       0
    x[0,2,1,0]  c81       10000000
    x[0,2,1,0]  c82       -10000000
    x[0,2,1,1]  c83       10000000
    x[0,2,1,1]  c84       -10000000
    x[0,2,1,2]  c85       10000000
    x[0,2,1,2]  c86       -10000000
    x[0,2,2,0]  c87       10000000
    x[0,2,2,0]  c88       -10000000
    x[0,2,2,1]  OBJ       0
    x[0,2,2,2]  OBJ       0
    x[0,2,3,0]  c89       10000000
    x[0,2,3,0]  c90       -10000000
    x[0,2,3,1]  OBJ       0
    x[0,2,3,2]  OBJ       0
    x[1,0,0,0]  OBJ       0
    x[1,0,0,1]  OBJ       0
    x[1,0,0,2]  OBJ       0
    x[1,0,1,0]  OBJ       0
    x[1,0,1,1]  c91       10000000
    x[1,0,1,1]  c92       -10000000
    x[1,0,1,1]  c93       10000000
    x[1,0,1,1]  c94       -10000000
    x[1,0,1,2]  OBJ       0
    x[1,0,2,0]  OBJ       0
    x[1,0,2,1]  c95       10000000
    x[1,0,2,1]  c96       -10000000
    x[1,0,2,2]  c97       10000000
    x[1,0,2,2]  c98       -10000000
    x[1,0,3,0]  OBJ       0
    x[1,0,3,1]  c99       10000000
    x[1,0,3,1]  c100      -10000000
    x[1,0,3,2]  c101      10000000
    x[1,0,3,2]  c102      -10000000
    x[1,1,0,0]  OBJ       0
    x[1,1,0,1]  OBJ       0
    x[1,1,0,2]  OBJ       0
    x[1,1,1,0]  c103      10000000
    x[1,1,1,0]  c104      -10000000
    x[1,1,1,0]  c105      10000000
    x[1,1,1,0]  c106      -10000000
    x[1,1,1,1]  OBJ       0
    x[1,1,1,2]  OBJ       0
    x[1,1,2,0]  OBJ       0
    x[1,1,2,1]  c107      10000000
    x[1,1,2,1]  c108      -10000000
    x[1,1,2,2]  c109      10000000
    x[1,1,2,2]  c110      -10000000
    x[1,1,3,0]  OBJ       0
    x[1,1,3,1]  c111      10000000
    x[1,1,3,1]  c112      -10000000
    x[1,1,3,2]  c113      10000000
    x[1,1,3,2]  c114      -10000000
    x[1,2,0,0]  OBJ       0
    x[1,2,0,1]  OBJ       0
    x[1,2,0,2]  OBJ       0
    x[1,2,1,0]  OBJ       0
    x[1,2,1,1]  OBJ       0
    x[1,2,1,2]  OBJ       0
    x[1,2,2,0]  c115      10000000
    x[1,2,2,0]  c116      -10000000
    x[1,2,2,0]  c117      10000000
    x[1,2,2,0]  c118      -10000000
    x[1,2,2,1]  c119      10000000
    x[1,2,2,1]  c120      -10000000
    x[1,2,2,2]  OBJ       0
    x[1,2,3,0]  c121      10000000
    x[1,2,3,0]  c122      -10000000
    x[1,2,3,0]  c123      10000000
    x[1,2,3,0]  c124      -10000000
    x[1,2,3,1]  OBJ       0
    x[1,2,3,2]  OBJ       0
    x[2,0,0,0]  OBJ       0
    x[2,0,0,1]  OBJ       0
    x[2,0,0,2]  OBJ       0
    x[2,0,1,0]  OBJ       0
    x[2,0,1,1]  OBJ       0
    x[2,0,1,2]  OBJ       0
    x[2,0,2,0]  OBJ       0
    x[2,0,2,1]  c125      10000000
    x[2,0,2,1]  c126      -10000000
    x[2,0,2,2]  OBJ       0
    x[2,0,3,0]  c127      10000000
    x[2,0,3,0]  c128      -10000000
    x[2,0,3,0]  c129      10000000
    x[2,0,3,0]  c130      -10000000
    x[2,0,3,1]  OBJ       0
    x[2,0,3,2]  OBJ       0
    x[2,1,0,0]  OBJ       0
    x[2,1,0,1]  OBJ       0
    x[2,1,0,2]  OBJ       0
    x[2,1,1,0]  OBJ       0
    x[2,1,1,1]  OBJ       0
    x[2,1,1,2]  OBJ       0
    x[2,1,2,0]  c131      10000000
    x[2,1,2,0]  c132      -10000000
    x[2,1,2,1]  OBJ       0
    x[2,1,2,2]  c133      10000000
    x[2,1,2,2]  c134      -10000000
    x[2,1,3,0]  c135      10000000
    x[2,1,3,0]  c136      -10000000
    x[2,1,3,1]  c137      10000000
    x[2,1,3,1]  c138      -10000000
    x[2,1,3,2]  c139      10000000
    x[2,1,3,2]  c140      -10000000
    x[2,2,0,0]  OBJ       0
    x[2,2,0,1]  OBJ       0
    x[2,2,0,2]  OBJ       0
    x[2,2,1,0]  OBJ       0
    x[2,2,1,1]  OBJ       0
    x[2,2,1,2]  OBJ       0
    x[2,2,2,0]  OBJ       0
    x[2,2,2,1]  c141      10000000
    x[2,2,2,1]  c142      -10000000
    x[2,2,2,2]  OBJ       0
    x[2,2,3,0]  OBJ       0
    x[2,2,3,1]  c143      10000000
    x[2,2,3,1]  c144      -10000000
    x[2,2,3,1]  c145      10000000
    x[2,2,3,1]  c146      -10000000
    x[2,2,3,2]  c147      10000000
    x[2,2,3,2]  c148      -10000000
    x[2,2,3,2]  c149      10000000
    x[2,2,3,2]  c150      -10000000
    x[3,0,0,0]  OBJ       0
    x[3,0,0,1]  OBJ       0
    x[3,0,0,2]  OBJ       0
    x[3,0,1,0]  OBJ       0
    x[3,0,1,1]  OBJ       0
    x[3,0,1,2]  OBJ       0
    x[3,0,2,0]  OBJ       0
    x[3,0,2,1]  OBJ       0
    x[3,0,2,2]  OBJ       0
    x[3,0,3,0]  OBJ       0
    x[3,0,3,1]  OBJ       0
    x[3,0,3,2]  OBJ       0
    x[3,1,0,0]  OBJ       0
    x[3,1,0,1]  OBJ       0
    x[3,1,0,2]  OBJ       0
    x[3,1,1,0]  OBJ       0
    x[3,1,1,1]  OBJ       0
    x[3,1,1,2]  OBJ       0
    x[3,1,2,0]  OBJ       0
    x[3,1,2,1]  OBJ       0
    x[3,1,2,2]  OBJ       0
    x[3,1,3,0]  OBJ       0
    x[3,1,3,1]  OBJ       0
    x[3,1,3,2]  c151      10000000
    x[3,1,3,2]  c152      -10000000
    x[3,1,3,2]  c153      10000000
    x[3,1,3,2]  c154      -10000000
    x[3,2,0,0]  OBJ       0
    x[3,2,0,1]  OBJ       0
    x[3,2,0,2]  OBJ       0
    x[3,2,1,0]  OBJ       0
    x[3,2,1,1]  OBJ       0
    x[3,2,1,2]  OBJ       0
    x[3,2,2,0]  OBJ       0
    x[3,2,2,1]  OBJ       0
    x[3,2,2,2]  OBJ       0
    x[3,2,3,0]  OBJ       0
    x[3,2,3,1]  c155      10000000
    x[3,2,3,1]  c156      -10000000
    x[3,2,3,1]  c157      10000000
    x[3,2,3,1]  c158      -10000000
    x[3,2,3,2]  OBJ       0
    s[0,0,3]  c0        -1
    s[0,0,3]  c13       1
    s[0,0,3]  c37       1
    s[0,0,3]  c38       1
    s[0,0,3]  c45       -1
    s[0,0,3]  c46       1
    s[0,0,3]  c49       -1
    s[0,0,3]  c50       1
    s[0,0,3]  c51       -1
    s[0,0,3]  c52       1
    s[0,0,3]  c77       1
    s[0,0,3]  c78       -1
    s[0,0,3]  c159      1
    s[0,0,3]  c160      1
    s[0,0,4]  c0        -1
    s[0,0,4]  c14       1
    s[0,0,4]  c37       1
    s[0,0,4]  c38       1
    s[0,0,4]  c47       -1
    s[0,0,4]  c48       1
    s[0,0,4]  c53       -1
    s[0,0,4]  c54       1
    s[0,0,4]  c55       -1
    s[0,0,4]  c56       1
    s[0,0,4]  c57       -1
    s[0,0,4]  c58       1
    s[0,0,4]  c79       1
    s[0,0,4]  c80       -1
    s[0,0,4]  c161      1
    s[0,0,4]  c162      1
    s[0,1,0]  c15       1
    s[0,1,0]  c37       -1
    s[0,1,0]  c65       -1
    s[0,1,0]  c66       1
    s[0,1,0]  c69       -1
    s[0,1,0]  c70       1
    s[0,1,0]  c73       -1
    s[0,1,0]  c74       1
    s[0,1,0]  c163      1
    s[0,1,0]  c164      1
    s[0,1,2]  c16       1
    s[0,1,2]  c37       -1
    s[0,1,2]  c59       -1
    s[0,1,2]  c60       1
    s[0,1,2]  c61       -1
    s[0,1,2]  c62       1
    s[0,1,2]  c63       -1
    s[0,1,2]  c64       1
    s[0,1,2]  c67       -1
    s[0,1,2]  c68       1
    s[0,1,2]  c71       -1
    s[0,1,2]  c72       1
    s[0,1,2]  c75       -1
    s[0,1,2]  c76       1
    s[0,1,2]  c165      1
    s[0,1,2]  c166      1
    s[0,2,3]  c17       1
    s[0,2,3]  c38       -1
    s[0,2,3]  c45       1
    s[0,2,3]  c46       -1
    s[0,2,3]  c77       -1
    s[0,2,3]  c78       1
    s[0,2,3]  c81       -1
    s[0,2,3]  c82       1
    s[0,2,3]  c83       -1
    s[0,2,3]  c84       1
    s[0,2,3]  c167      1
    s[0,2,3]  c168      1
    s[0,2,4]  c18       1
    s[0,2,4]  c38       -1
    s[0,2,4]  c47       1
    s[0,2,4]  c48       -1
    s[0,2,4]  c79       -1
    s[0,2,4]  c80       1
    s[0,2,4]  c85       -1
    s[0,2,4]  c86       1
    s[0,2,4]  c87       -1
    s[0,2,4]  c88       1
    s[0,2,4]  c89       -1
    s[0,2,4]  c90       1
    s[0,2,4]  c169      1
    s[0,2,4]  c170      1
    s[1,0,2]  c0        -1
    s[1,0,2]  c19       1
    s[1,0,2]  c39       1
    s[1,0,2]  c40       1
    s[1,0,2]  c59       1
    s[1,0,2]  c60       -1
    s[1,0,2]  c91       -1
    s[1,0,2]  c92       1
    s[1,0,2]  c95       -1
    s[1,0,2]  c96       1
    s[1,0,2]  c97       -1
    s[1,0,2]  c98       1
    s[1,0,2]  c99       -1
    s[1,0,2]  c100      1
    s[1,0,2]  c101      -1
    s[1,0,2]  c102      1
    s[1,0,2]  c103      1
    s[1,0,2]  c104      -1
    s[1,0,2]  c171      1
    s[1,0,2]  c172      1
    s[1,0,3]  c0        -1
    s[1,0,3]  c20       1
    s[1,0,3]  c39       1
    s[1,0,3]  c40       1
    s[1,0,3]  c49       1
    s[1,0,3]  c50       -1
    s[1,0,3]  c81       1
    s[1,0,3]  c82       -1
    s[1,0,3]  c93       -1
    s[1,0,3]  c94       1
    s[1,0,3]  c105      1
    s[1,0,3]  c106      -1
    s[1,0,3]  c173      1
    s[1,0,3]  c174      1
    s[1,1,2]  c21       1
    s[1,1,2]  c39       -1
    s[1,1,2]  c61       1
    s[1,1,2]  c62       -1
    s[1,1,2]  c91       1
    s[1,1,2]  c92       -1
    s[1,1,2]  c103      -1
    s[1,1,2]  c104      1
    s[1,1,2]  c107      -1
    s[1,1,2]  c108      1
    s[1,1,2]  c109      -1
    s[1,1,2]  c110      1
    s[1,1,2]  c111      -1
    s[1,1,2]  c112      1
    s[1,1,2]  c113      -1
    s[1,1,2]  c114      1
    s[1,1,2]  c175      1
    s[1,1,2]  c176      1
    s[1,1,3]  c22       1
    s[1,1,3]  c39       -1
    s[1,1,3]  c51       1
    s[1,1,3]  c52       -1
    s[1,1,3]  c83       1
    s[1,1,3]  c84       -1
    s[1,1,3]  c93       1
    s[1,1,3]  c94       -1
    s[1,1,3]  c105      -1
    s[1,1,3]  c106      1
    s[1,1,3]  c177      1
    s[1,1,3]  c178      1
    s[1,2,1]  c23       1
    s[1,2,1]  c40       -1
    s[1,2,1]  c115      -1
    s[1,2,1]  c116      1
    s[1,2,1]  c119      -1
    s[1,2,1]  c120      1
    s[1,2,1]  c121      -1
    s[1,2,1]  c122      1
    s[1,2,1]  c179      1
    s[1,2,1]  c180      1
    s[1,2,4]  c24       1
    s[1,2,4]  c40       -1
    s[1,2,4]  c53       1
    s[1,2,4]  c54       -1
    s[1,2,4]  c85       1
    s[1,2,4]  c86       -1
    s[1,2,4]  c117      -1
    s[1,2,4]  c118      1
    s[1,2,4]  c123      -1
    s[1,2,4]  c124      1
    s[1,2,4]  c181      1
    s[1,2,4]  c182      1
    s[2,0,1]  c0        -1
    s[2,0,1]  c25       1
    s[2,0,1]  c41       1
    s[2,0,1]  c42       1
    s[2,0,1]  c115      1
    s[2,0,1]  c116      -1
    s[2,0,1]  c125      -1
    s[2,0,1]  c126      1
    s[2,0,1]  c127      -1
    s[2,0,1]  c128      1
    s[2,0,1]  c131      1
    s[2,0,1]  c132      -1
    s[2,0,1]  c183      1
    s[2,0,1]  c184      1
    s[2,0,4]  c0        -1
    s[2,0,4]  c26       1
    s[2,0,4]  c41       1
    s[2,0,4]  c42       1
    s[2,0,4]  c55       1
    s[2,0,4]  c56       -1
    s[2,0,4]  c87       1
    s[2,0,4]  c88       -1
    s[2,0,4]  c117      1
    s[2,0,4]  c118      -1
    s[2,0,4]  c129      -1
    s[2,0,4]  c130      1
    s[2,0,4]  c185      1
    s[2,0,4]  c186      1
    s[2,1,1]  c27       1
    s[2,1,1]  c41       -1
    s[2,1,1]  c119      1
    s[2,1,1]  c120      -1
    s[2,1,1]  c125      1
    s[2,1,1]  c126      -1
    s[2,1,1]  c131      -1
    s[2,1,1]  c132      1
    s[2,1,1]  c135      -1
    s[2,1,1]  c136      1
    s[2,1,1]  c187      1
    s[2,1,1]  c188      1
    s[2,1,2]  c28       1
    s[2,1,2]  c41       -1
    s[2,1,2]  c63       1
    s[2,1,2]  c64       -1
    s[2,1,2]  c95       1
    s[2,1,2]  c96       -1
    s[2,1,2]  c107      1
    s[2,1,2]  c108      -1
    s[2,1,2]  c133      -1
    s[2,1,2]  c134      1
    s[2,1,2]  c137      -1
    s[2,1,2]  c138      1
    s[2,1,2]  c139      -1
    s[2,1,2]  c140      1
    s[2,1,2]  c141      1
    s[2,1,2]  c142      -1
    s[2,1,2]  c189      1
    s[2,1,2]  c190      1
    s[2,2,0]  c29       1
    s[2,2,0]  c42       -1
    s[2,2,0]  c65       1
    s[2,2,0]  c66       -1
    s[2,2,0]  c143      -1
    s[2,2,0]  c144      1
    s[2,2,0]  c147      -1
    s[2,2,0]  c148      1
    s[2,2,0]  c191      1
    s[2,2,0]  c192      1
    s[2,2,2]  c30       1
    s[2,2,2]  c42       -1
    s[2,2,2]  c67       1
    s[2,2,2]  c68       -1
    s[2,2,2]  c97       1
    s[2,2,2]  c98       -1
    s[2,2,2]  c109      1
    s[2,2,2]  c110      -1
    s[2,2,2]  c133      1
    s[2,2,2]  c134      -1
    s[2,2,2]  c141      -1
    s[2,2,2]  c142      1
    s[2,2,2]  c145      -1
    s[2,2,2]  c146      1
    s[2,2,2]  c149      -1
    s[2,2,2]  c150      1
    s[2,2,2]  c193      1
    s[2,2,2]  c194      1
    s[3,0,1]  c0        -1
    s[3,0,1]  c31       1
    s[3,0,1]  c43       1
    s[3,0,1]  c44       1
    s[3,0,1]  c121      1
    s[3,0,1]  c122      -1
    s[3,0,1]  c127      1
    s[3,0,1]  c128      -1
    s[3,0,1]  c135      1
    s[3,0,1]  c136      -1
    s[3,0,1]  c195      1
    s[3,0,1]  c196      1
    s[3,0,4]  c0        -1
    s[3,0,4]  c32       1
    s[3,0,4]  c43       1
    s[3,0,4]  c44       1
    s[3,0,4]  c57       1
    s[3,0,4]  c58       -1
    s[3,0,4]  c89       1
    s[3,0,4]  c90       -1
    s[3,0,4]  c123      1
    s[3,0,4]  c124      -1
    s[3,0,4]  c129      1
    s[3,0,4]  c130      -1
    s[3,0,4]  c197      1
    s[3,0,4]  c198      1
    s[3,1,0]  c33       1
    s[3,1,0]  c43       -1
    s[3,1,0]  c69       1
    s[3,1,0]  c70       -1
    s[3,1,0]  c143      1
    s[3,1,0]  c144      -1
    s[3,1,0]  c151      -1
    s[3,1,0]  c152      1
    s[3,1,0]  c155      1
    s[3,1,0]  c156      -1
    s[3,1,0]  c199      1
    s[3,1,0]  c200      1
    s[3,1,2]  c34       1
    s[3,1,2]  c43       -1
    s[3,1,2]  c71       1
    s[3,1,2]  c72       -1
    s[3,1,2]  c99       1
    s[3,1,2]  c100      -1
    s[3,1,2]  c111      1
    s[3,1,2]  c112      -1
    s[3,1,2]  c137      1
    s[3,1,2]  c138      -1
    s[3,1,2]  c145      1
    s[3,1,2]  c146      -1
    s[3,1,2]  c153      -1
    s[3,1,2]  c154      1
    s[3,1,2]  c157      1
    s[3,1,2]  c158      -1
    s[3,1,2]  c201      1
    s[3,1,2]  c202      1
    s[3,2,0]  c35       1
    s[3,2,0]  c44       -1
    s[3,2,0]  c73       1
    s[3,2,0]  c74       -1
    s[3,2,0]  c147      1
    s[3,2,0]  c148      -1
    s[3,2,0]  c151      1
    s[3,2,0]  c152      -1
    s[3,2,0]  c155      -1
    s[3,2,0]  c156      1
    s[3,2,0]  c203      1
    s[3,2,0]  c204      1
    s[3,2,2]  c36       1
    s[3,2,2]  c44       -1
    s[3,2,2]  c75       1
    s[3,2,2]  c76       -1
    s[3,2,2]  c101      1
    s[3,2,2]  c102      -1
    s[3,2,2]  c113      1
    s[3,2,2]  c114      -1
    s[3,2,2]  c139      1
    s[3,2,2]  c140      -1
    s[3,2,2]  c149      1
    s[3,2,2]  c150      -1
    s[3,2,2]  c153      1
    s[3,2,2]  c154      -1
    s[3,2,2]  c157      -1
    s[3,2,2]  c158      1
    s[3,2,2]  c205      1
    s[3,2,2]  c206      1
    Z_FO      OBJ       1
    Z_FO      c0        1
    MARKER    'MARKER'                 'INTEND'
RHS
    RHS1      c1        1
    RHS1      c2        1
    RHS1      c3        1
    RHS1      c4        1
    RHS1      c5        1
    RHS1      c6        1
    RHS1      c7        1
    RHS1      c8        1
    RHS1      c9        1
    RHS1      c10       1
    RHS1      c11       1
    RHS1      c12       1
    RHS1      c45       -19999991
    RHS1      c46       -29999977
    RHS1      c47       -19999978
    RHS1      c48       -29999976
    RHS1      c49       -19999991
    RHS1      c50       -29999980
    RHS1      c51       -19999980
    RHS1      c52       -29999992
    RHS1      c53       -19999978
    RHS1      c54       -29999986
    RHS1      c55       -19999990
    RHS1      c56       -29999986
    RHS1      c57       -19999973
    RHS1      c58       -29999994
    RHS1      c59       -19999989
    RHS1      c60       -29999993
    RHS1      c61       -19999991
    RHS1      c62       -29999993
    RHS1      c63       -19999987
    RHS1      c64       -29999980
    RHS1      c65       -19999993
    RHS1      c66       -29999988
    RHS1      c67       -19999991
    RHS1      c68       -29999976
    RHS1      c69       -19999991
    RHS1      c70       -29999993
    RHS1      c71       -19999975
    RHS1      c72       -29999989
    RHS1      c73       -19999981
    RHS1      c74       -29999987
    RHS1      c75       -19999985
    RHS1      c76       -29999975
    RHS1      c77       -19999977
    RHS1      c78       -29999991
    RHS1      c79       -19999976
    RHS1      c80       -29999978
    RHS1      c81       -19999981
    RHS1      c82       -29999989
    RHS1      c83       -19999991
    RHS1      c84       -29999986
    RHS1      c85       -19999992
    RHS1      c86       -29999994
    RHS1      c87       -19999993
    RHS1      c88       -29999985
    RHS1      c89       -19999987
    RHS1      c90       -29999996
    RHS1      c91       -19999991
    RHS1      c92       -29999992
    RHS1      c93       -19999987
    RHS1      c94       -29999992
    RHS1      c95       -19999989
    RHS1      c96       -29999987
    RHS1      c97       -19999993
    RHS1      c98       -29999986
    RHS1      c99       -19999989
    RHS1      c100      -29999994
    RHS1      c101      -19999990
    RHS1      c102      -29999992
    RHS1      c103      -19999992
    RHS1      c104      -29999991
    RHS1      c105      -19999992
    RHS1      c106      -29999987
    RHS1      c107      -19999993
    RHS1      c108      -29999992
    RHS1      c109      -19999996
    RHS1      c110      -29999991
    RHS1      c111      -19999986
    RHS1      c112      -29999991
    RHS1      c113      -19999986
    RHS1      c114      -29999987
    RHS1      c115      -19999993
    RHS1      c116      -29999990
    RHS1      c117      -19999994
    RHS1      c118      -29999989
    RHS1      c119      -19999978
    RHS1      c120      -29999987
    RHS1      c121      -19999978
    RHS1      c122      -29999993
    RHS1      c123      -19999983
    RHS1      c124      -29999983
    RHS1      c125      -19999982
    RHS1      c126      -29999990
    RHS1      c127      -19999978
    RHS1      c128      -29999985
    RHS1      c129      -19999986
    RHS1      c130      -29999994
    RHS1      c131      -19999990
    RHS1      c132      -29999982
    RHS1      c133      -19999990
    RHS1      c134      -29999984
    RHS1      c135      -19999971
    RHS1      c136      -29999977
    RHS1      c137      -19999992
    RHS1      c138      -29999995
    RHS1      c139      -19999987
    RHS1      c140      -29999983
    RHS1      c141      -19999984
    RHS1      c142      -29999990
    RHS1      c143      -19999987
    RHS1      c144      -29999989
    RHS1      c145      -19999992
    RHS1      c146      -29999977
    RHS1      c147      -19999977
    RHS1      c148      -29999991
    RHS1      c149      -19999990
    RHS1      c150      -29999989
    RHS1      c151      -19999977
    RHS1      c152      -29999993
    RHS1      c153      -19999988
    RHS1      c154      -29999989
    RHS1      c155      -19999993
    RHS1      c156      -29999977
    RHS1      c157      -19999989
    RHS1      c158      -29999988
BOUNDS
 BV BND1      y[0,0,3]
 BV BND1      y[0,0,4]
 BV BND1      y[0,1,0]
 BV BND1      y[0,1,2]
 BV BND1      y[0,2,3]
 BV BND1      y[0,2,4]
 BV BND1      y[1,0,2]
 BV BND1      y[1,0,3]
 BV BND1      y[1,1,2]
 BV BND1      y[1,1,3]
 BV BND1      y[1,2,1]
 BV BND1      y[1,2,4]
 BV BND1      y[2,0,1]
 BV BND1      y[2,0,4]
 BV BND1      y[2,1,1]
 BV BND1      y[2,1,2]
 BV BND1      y[2,2,0]
 BV BND1      y[2,2,2]
 BV BND1      y[3,0,1]
 BV BND1      y[3,0,4]
 BV BND1      y[3,1,0]
 BV BND1      y[3,1,2]
 BV BND1      y[3,2,0]
 BV BND1      y[3,2,2]
 BV BND1      x[0,0,0,0]
 BV BND1      x[0,0,0,1]
 BV BND1      x[0,0,0,2]
 BV BND1      x[0,0,1,0]
 BV BND1      x[0,0,1,1]
 BV BND1      x[0,0,1,2]
 BV BND1      x[0,0,2,0]
 BV BND1      x[0,0,2,1]
 BV BND1      x[0,0,2,2]
 BV BND1      x[0,0,3,0]
 BV BND1      x[0,0,3,1]
 BV BND1      x[0,0,3,2]
 BV BND1      x[0,1,0,0]
 BV BND1      x[0,1,0,1]
 BV BND1      x[0,1,0,2]
 BV BND1      x[0,1,1,0]
 BV BND1      x[0,1,1,1]
 BV BND1      x[0,1,1,2]
 BV BND1      x[0,1,2,0]
 BV BND1      x[0,1,2,1]
 BV BND1      x[0,1,2,2]
 BV BND1      x[0,1,3,0]
 BV BND1      x[0,1,3,1]
 BV BND1      x[0,1,3,2]
 BV BND1      x[0,2,0,0]
 BV BND1      x[0,2,0,1]
 BV BND1      x[0,2,0,2]
 BV BND1      x[0,2,1,0]
 BV BND1      x[0,2,1,1]
 BV BND1      x[0,2,1,2]
 BV BND1      x[0,2,2,0]
 BV BND1      x[0,2,2,1]
 BV BND1      x[0,2,2,2]
 BV BND1      x[0,2,3,0]
 BV BND1      x[0,2,3,1]
 BV BND1      x[0,2,3,2]
 BV BND1      x[1,0,0,0]
 BV BND1      x[1,0,0,1]
 BV BND1      x[1,0,0,2]
 BV BND1      x[1,0,1,0]
 BV BND1      x[1,0,1,1]
 BV BND1      x[1,0,1,2]
 BV BND1      x[1,0,2,0]
 BV BND1      x[1,0,2,1]
 BV BND1      x[1,0,2,2]
 BV BND1      x[1,0,3,0]
 BV BND1      x[1,0,3,1]
 BV BND1      x[1,0,3,2]
 BV BND1      x[1,1,0,0]
 BV BND1      x[1,1,0,1]
 BV BND1      x[1,1,0,2]
 BV BND1      x[1,1,1,0]
 BV BND1      x[1,1,1,1]
 BV BND1      x[1,1,1,2]
 BV BND1      x[1,1,2,0]
 BV BND1      x[1,1,2,1]
 BV BND1      x[1,1,2,2]
 BV BND1      x[1,1,3,0]
 BV BND1      x[1,1,3,1]
 BV BND1      x[1,1,3,2]
 BV BND1      x[1,2,0,0]
 BV BND1      x[1,2,0,1]
 BV BND1      x[1,2,0,2]
 BV BND1      x[1,2,1,0]
 BV BND1      x[1,2,1,1]
 BV BND1      x[1,2,1,2]
 BV BND1      x[1,2,2,0]
 BV BND1      x[1,2,2,1]
 BV BND1      x[1,2,2,2]
 BV BND1      x[1,2,3,0]
 BV BND1      x[1,2,3,1]
 BV BND1      x[1,2,3,2]
 BV BND1      x[2,0,0,0]
 BV BND1      x[2,0,0,1]
 BV BND1      x[2,0,0,2]
 BV BND1      x[2,0,1,0]
 BV BND1      x[2,0,1,1]
 BV BND1      x[2,0,1,2]
 BV BND1      x[2,0,2,0]
 BV BND1      x[2,0,2,1]
 BV BND1      x[2,0,2,2]
 BV BND1      x[2,0,3,0]
 BV BND1      x[2,0,3,1]
 BV BND1      x[2,0,3,2]
 BV BND1      x[2,1,0,0]
 BV BND1      x[2,1,0,1]
 BV BND1      x[2,1,0,2]
 BV BND1      x[2,1,1,0]
 BV BND1      x[2,1,1,1]
 BV BND1      x[2,1,1,2]
 BV BND1      x[2,1,2,0]
 BV BND1      x[2,1,2,1]
 BV BND1      x[2,1,2,2]
 BV BND1      x[2,1,3,0]
 BV BND1      x[2,1,3,1]
 BV BND1      x[2,1,3,2]
 BV BND1      x[2,2,0,0]
 BV BND1      x[2,2,0,1]
 BV BND1      x[2,2,0,2]
 BV BND1      x[2,2,1,0]
 BV BND1      x[2,2,1,1]
 BV BND1      x[2,2,1,2]
 BV BND1      x[2,2,2,0]
 BV BND1      x[2,2,2,1]
 BV BND1      x[2,2,2,2]
 BV BND1      x[2,2,3,0]
 BV BND1      x[2,2,3,1]
 BV BND1      x[2,2,3,2]
 BV BND1      x[3,0,0,0]
 BV BND1      x[3,0,0,1]
 BV BND1      x[3,0,0,2]
 BV BND1      x[3,0,1,0]
 BV BND1      x[3,0,1,1]
 BV BND1      x[3,0,1,2]
 BV BND1      x[3,0,2,0]
 BV BND1      x[3,0,2,1]
 BV BND1      x[3,0,2,2]
 BV BND1      x[3,0,3,0]
 BV BND1      x[3,0,3,1]
 BV BND1      x[3,0,3,2]
 BV BND1      x[3,1,0,0]
 BV BND1      x[3,1,0,1]
 BV BND1      x[3,1,0,2]
 BV BND1      x[3,1,1,0]
 BV BND1      x[3,1,1,1]
 BV BND1      x[3,1,1,2]
 BV BND1      x[3,1,2,0]
 BV BND1      x[3,1,2,1]
 BV BND1      x[3,1,2,2]
 BV BND1      x[3,1,3,0]
 BV BND1      x[3,1,3,1]
 BV BND1      x[3,1,3,2]
 BV BND1      x[3,2,0,0]
 BV BND1      x[3,2,0,1]
 BV BND1      x[3,2,0,2]
 BV BND1      x[3,2,1,0]
 BV BND1      x[3,2,1,1]
 BV BND1      x[3,2,1,2]
 BV BND1      x[3,2,2,0]
 BV BND1      x[3,2,2,1]
 BV BND1      x[3,2,2,2]
 BV BND1      x[3,2,3,0]
 BV BND1      x[3,2,3,1]
 BV BND1      x[3,2,3,2]
 LI BND1      s[0,0,3]  0
 LI BND1      s[0,0,4]  0
 LI BND1      s[0,1,0]  0
 LI BND1      s[0,1,2]  0
 LI BND1      s[0,2,3]  0
 LI BND1      s[0,2,4]  0
 LI BND1      s[1,0,2]  0
 LI BND1      s[1,0,3]  0
 LI BND1      s[1,1,2]  0
 LI BND1      s[1,1,3]  0
 LI BND1      s[1,2,1]  0
 LI BND1      s[1,2,4]  0
 LI BND1      s[2,0,1]  0
 LI BND1      s[2,0,4]  0
 LI BND1      s[2,1,1]  0
 LI BND1      s[2,1,2]  0
 LI BND1      s[2,2,0]  0
 LI BND1      s[2,2,2]  0
 LI BND1      s[3,0,1]  0
 LI BND1      s[3,0,4]  0
 LI BND1      s[3,1,0]  0
 LI BND1      s[3,1,2]  0
 LI BND1      s[3,2,0]  0
 LI BND1      s[3,2,2]  0
 LI BND1      Z_FO      0
ENDATA
